3 3 2
30 1 29 0 7 1 20 2 99 0 61 1 21 0 68 1 19 0 5 2 7 1 22 0 59 2 31 1 97 0 21 2 60 0 83 2 61 0 24 2 62 0 17 1 40 0 35 2 72 1 61 0 25 1 61 2 60 0 35 1 34 
30 0 10 2 17 0 32 2 92 1 25 0 99 2 78 0 70 1 68 2 15 1 65 2 62 0 9 1 10 2 9 1 8 0 44 1 35 0 84 2 23 1 85 0 15 1 96 2 0 0 12 1 88 2 27 0 79 2 13 0 74 
30 1 33 2 23 1 65 2 44 1 2 0 95 2 31 0 61 1 80 2 82 0 91 1 57 0 28 1 26 2 21 1 86 0 91 2 71 0 5 1 24 2 99 0 22 1 46 2 76 0 72 1 30 0 60 1 31 0 1 2 66 

-------------
